NAME : P = NP
TYPE : TSP
DIMENSION : 40
EDGE_WEIGHT_TYPE : EUC_2D
NODE_COORD_SECTION
0 518 717
1 172 60
2 62 176
3 163 198
4 5 295
5 247 482
6 338 643
7 246 78
8 195 115
9 335 221
10 164 10
11 34 14
12 3 369
13 18 84
14 71 198
15 40 94
16 2 467
17 165 665
18 12 272
19 766 526
20 257 350
21 206 338
22 6 2
23 358 53
24 39 211
25 13 529
26 265 305
27 33 230
28 642 268
29 540 48
30 340 230
31 397 22
32 287 316
33 190 31
34 564 73
35 821 124
36 280 944
37 45 48
38 3 70
39 230 28